45 28 99 94 26 13 89 
31 69 21 56 22 4 55 
47 82 51 78 34 35 
5 59 73 75 41 97 96 93 91 
27 14 86 44 85 37 48 
95 92 2 12 76 43 
72 23 40 46 60 
62 30 88 7 8 17 100 
63 11 19 66 20 24 
42 98 38 87 57 54 
65 9 71 3 68 80 77 
29 33 81 79 70 25 
83 36 64 90 50 1 58 
52 61 6 53 10 32 
15 39 67 74 
16 18 49 
84 

